NAME : ftv44.1754.tour
COMMENT : Cost = 0_1754
COMMENT : Found by LKH [Keld Helsgaun] Fri Jan 13 17:16:52 2017
TYPE : TOUR
DIMENSION : 49
TOUR_SECTION
1
2
3
6
46
21
8
10
9
41
42
7
40
39
36
33
29
26
27
28
34
35
37
38
45
4
5
48
20
47
22
49
32
31
30
25
43
24
23
19
17
18
16
13
14
44
12
11
15
-1
EOF
